data;
param T := 16000;
param N := 29;
param W := 
[0] 9895
[1] 9649
[2] 7101
[3] 6239
[4] 381
[5] 4618
[6] 5845
[7] 1215
[8] 8910
[9] 5342
[10] 868
[11] 506
[12] 3996
[13] 8277
[14] 4684
[15] 5086
[16] 1799
[17] 109
[18] 6514
[19] 8026
[20] 4280
[21] 8483
[22] 4730
[23] 770
[24] 3218
[25] 4176
[26] 7978
[27] 3379
[28] 4598
;
end;